;; sequence(s): A194431
;; terms: 1 19 53 103 169 251 349 463 593 739 901 1079 1273 1483 1709 1951 2209 2483 2773 3079
;; small program: loop(2 + (x + y), 2 * (x + x), 1)
;; fast program: 1 + (2 * ((2 * (2 * ((x * x) + x))) + x))
(set-logic UFNIA)
(declare-fun f0 (Int Int) Int)
(declare-fun g0 (Int) Int)
(declare-fun h0 () Int)
(declare-fun u0 (Int Int) Int)
(declare-fun v0 (Int) Int)
(declare-fun small (Int) Int)
(declare-fun fast (Int) Int)
(assert (forall ((x Int) (y Int)) (= (f0 x y) (+ 2 (+ x y)))))
(assert (forall ((x Int)) (= (g0 x) (* 2 (+ x x)))))
(assert (= h0 1))
(assert (forall ((x Int) (y Int)) (= (u0 x y) (ite (<= x 0) y (f0 (u0 (- x 1) y) x)))))
(assert (forall ((x Int)) (= (v0 x) (u0 (g0 x) h0))))
(assert (forall ((x Int)) (= (small x) (v0 x))))
(assert (forall ((x Int)) (= (fast x) (+ 1 (* 2 (+ (* 2 (* 2 (+ (* x x) x))) x))))))
(assert (exists ((c Int)) (and (>= c 0) (not (= (small c) (fast c))))))
(check-sat)
